instances/ber25.oplib
NAME: ber25
TYPE: OP
COMMENT: 25 locations in Berth (609)
DIMENSION: 25
COST_LIMIT : 3771
EDGE_WEIGHT_TYPE: EUC_2D
NODE_COORD_SECTION
1 565.0 575.0
2 25.0 185.0
3 345.0 750.0
4 945.0 685.0
5 845.0 655.0
6 880.0 660.0
7 25.0 230.0
8 525.0 1000.0
9 580.0 1175.0
10 650.0 1130.0
11 1605.0 620.0
12 1220.0 580.0
13 1465.0 200.0
14 1530.0 5.0
15 845.0 680.0
16 725.0 370.0
17 145.0 665.0
18 415.0 635.0
19 510.0 875.0
20 560.0 365.0
21 300.0 465.0
22 520.0 585.0
23 480.0 415.0
24 835.0 625.0
25 975.0 580.0
NODE_SCORE_SECTION
1 0
2 55
3 23
4 33
5 24
6 27
7 53
8 35
9 49
10 46
11 85
12 54
13 80
14 91
15 25
16 22
17 35
18 14
19 25
20 18
21 24
22 4
23 15
24 23
25 34
DEPOT_SECTION
1
-1
EOF
